Instance: Data/Instances_txt/inst_60_30_3.txt
SetUpTime: 12.286430835723877

Gurobi 10.0.1 (mac64[x86]) logging started Di  1 Aug 16:31:57 2023

Set parameter LogFile to value "Output/MILP_inst_60_30_3_2023-08-01_16-28-50.txt"
Set parameter TimeLimit to value 2700

Gurobi 10.0.1 (mac64[x86]) logging started Di  1 Aug 16:31:57 2023

Set parameter LogFile to value "Output/MILP_inst_60_30_3_2023-08-01_16-28-50.txt"
Gurobi Optimizer version 10.0.1 build v10.0.1rc0 (mac64[x86])

CPU model: Intel(R) Core(TM) i5-1038NG7 CPU @ 2.00GHz
Thread count: 4 physical cores, 8 logical processors, using up to 8 threads

Optimize a model with 121 rows, 20662 columns and 125864 nonzeros
Model fingerprint: 0xa4fe8369
Variable types: 0 continuous, 20662 integer (0 binary)
Coefficient statistics:
  Matrix range     [1e+00, 1e+00]
  Objective range  [2e+01, 6e+03]
  Bounds range     [1e+00, 1e+00]
  RHS range        [1e+00, 1e+00]
Presolve removed 0 rows and 39 columns
Presolve time: 0.24s
Presolved: 121 rows, 20623 columns, 125583 nonzeros
Variable types: 0 continuous, 20623 integer (20623 binary)

Root relaxation: objective 1.771048e+04, 1937 iterations, 0.60 seconds (0.86 work units)

    Nodes    |    Current Node    |     Objective Bounds      |     Work
 Expl Unexpl |  Obj  Depth IntInf | Incumbent    BestBd   Gap | It/Node Time

     0     0 17710.4805    0   82          - 17710.4805      -     -    1s
     0     0 17710.9926    0   82          - 17710.9926      -     -    1s
     0     0 17714.8122    0   83          - 17714.8122      -     -    1s
     0     0 17716.7471    0   80          - 17716.7471      -     -    1s
     0     0 17719.0099    0   86          - 17719.0099      -     -    1s
     0     0 17722.9539    0   85          - 17722.9539      -     -    1s
     0     0 17724.0751    0   83          - 17724.0751      -     -    1s
     0     0 17725.4565    0   83          - 17725.4565      -     -    1s
     0     0 17726.7011    0   82          - 17726.7011      -     -    1s
     0     0 17728.5290    0   87          - 17728.5290      -     -    1s
     0     0 17729.5425    0   84          - 17729.5425      -     -    1s
H    0     0                    21160.000000 17729.5425  16.2%     -    1s
H    0     0                    21004.000000 17729.5425  15.6%     -    1s
H    0     0                    20957.000000 17729.5425  15.4%     -    1s
H    0     0                    20326.000000 17729.5425  12.8%     -    1s
     0     0 17885.5972    0   87 20326.0000 17885.5972  12.0%     -    2s
     0     0 17885.5972    0   83 20326.0000 17885.5972  12.0%     -    2s
     0     0 17885.5972    0   80 20326.0000 17885.5972  12.0%     -    2s
     0     0 17885.5972    0   74 20326.0000 17885.5972  12.0%     -    2s
     0     0 17885.5972    0   83 20326.0000 17885.5972  12.0%     -    2s
     0     0 17885.5972    0   71 20326.0000 17885.5972  12.0%     -    2s
     0     0 17885.5972    0   70 20326.0000 17885.5972  12.0%     -    2s
     0     0 17885.5972    0   71 20326.0000 17885.5972  12.0%     -    2s
     0     0 17885.5972    0   77 20326.0000 17885.5972  12.0%     -    2s
     0     0 17885.5972    0   69 20326.0000 17885.5972  12.0%     -    2s
     0     0 17885.5972    0   76 20326.0000 17885.5972  12.0%     -    2s
H    0     0                    19468.000000 17885.5972  8.13%     -    3s
     0     0 18010.9953    0   60 19468.0000 18010.9953  7.48%     -    3s
H    0     0                    18309.999983 18010.9953  1.63%     -    3s
     0     0 18014.3462    0   98 18310.0000 18014.3462  1.61%     -    3s
     0     0 18014.3462    0   75 18310.0000 18014.3462  1.61%     -    4s
H    0     0                    18291.000000 18014.3462  1.51%     -    4s
     0     0 18015.8571    0   56 18291.0000 18015.8571  1.50%     -    4s
     0     0 18015.8571    0   56 18291.0000 18015.8571  1.50%     -    4s
     0     0 18015.9286    0   66 18291.0000 18015.9286  1.50%     -    4s
     0     0 18016.0000    0   56 18291.0000 18016.0000  1.50%     -    4s
     0     0 18016.0000    0   55 18291.0000 18016.0000  1.50%     -    4s
     0     0 18016.4286    0   57 18291.0000 18016.4286  1.50%     -    4s
     0     0 18016.8095    0   76 18291.0000 18016.8095  1.50%     -    4s
     0     0 18017.6786    0   67 18291.0000 18017.6786  1.49%     -    4s
     0     0 18018.2857    0   57 18291.0000 18018.2857  1.49%     -    4s
     0     0 18018.4505    0   76 18291.0000 18018.4505  1.49%     -    4s
     0     0 18019.3810    0   72 18291.0000 18019.3810  1.48%     -    4s
     0     0 18051.4978    0   93 18291.0000 18051.4978  1.31%     -    5s
     0     0 18051.7533    0   96 18291.0000 18051.7533  1.31%     -    5s
     0     0 18051.7647    0   69 18291.0000 18051.7647  1.31%     -    5s
     0     0 18081.0008    0  101 18291.0000 18081.0008  1.15%     -    5s
     0     0 18081.7542    0  109 18291.0000 18081.7542  1.14%     -    5s
     0     0 18083.1223    0  104 18291.0000 18083.1223  1.14%     -    5s
     0     0 18085.1197    0  110 18291.0000 18085.1197  1.13%     -    5s
     0     0 18086.5994    0  113 18291.0000 18086.5994  1.12%     -    5s
     0     0 18087.7089    0  104 18291.0000 18087.7089  1.11%     -    5s
     0     0 18089.8491    0  102 18291.0000 18089.8491  1.10%     -    5s
     0     0 18091.0835    0  116 18291.0000 18091.0835  1.09%     -    5s
     0     0 18091.1087    0  120 18291.0000 18091.1087  1.09%     -    5s
     0     0 18091.1237    0  115 18291.0000 18091.1237  1.09%     -    5s
     0     0 18091.1280    0  102 18291.0000 18091.1280  1.09%     -    5s
     0     0 18094.1006    0  117 18291.0000 18094.1006  1.08%     -    5s
     0     0 18094.2083    0  117 18291.0000 18094.2083  1.08%     -    5s
     0     0 18100.6064    0  102 18291.0000 18100.6064  1.04%     -    5s
     0     0 18100.6064    0   58 18291.0000 18100.6064  1.04%     -    5s
     0     0 18100.6064    0   78 18291.0000 18100.6064  1.04%     -    6s
     0     0 18100.6064    0   76 18291.0000 18100.6064  1.04%     -    6s
     0     0 18100.6064    0  101 18291.0000 18100.6064  1.04%     -    6s
     0     0 18106.1637    0  112 18291.0000 18106.1637  1.01%     -    6s
     0     0 18106.3395    0  107 18291.0000 18106.3395  1.01%     -    6s
     0     0 18111.3112    0  137 18291.0000 18111.3112  0.98%     -    6s
     0     0 18115.3385    0  117 18291.0000 18115.3385  0.96%     -    6s
     0     0 18115.3398    0  117 18291.0000 18115.3398  0.96%     -    6s
     0     0 18118.8950    0  139 18291.0000 18118.8950  0.94%     -    6s
     0     0 18118.9083    0  139 18291.0000 18118.9083  0.94%     -    6s
     0     0 18118.9177    0  137 18291.0000 18118.9177  0.94%     -    6s
     0     0 18118.9494    0  137 18291.0000 18118.9494  0.94%     -    6s
     0     0 18119.0775    0  144 18291.0000 18119.0775  0.94%     -    6s
     0     0 18119.1075    0  143 18291.0000 18119.1075  0.94%     -    6s
     0     0 18119.1548    0  146 18291.0000 18119.1548  0.94%     -    6s
     0     0 18119.2433    0  142 18291.0000 18119.2433  0.94%     -    6s
     0     0 18119.2747    0  142 18291.0000 18119.2747  0.94%     -    6s
     0     0 18119.3747    0  143 18291.0000 18119.3747  0.94%     -    6s
     0     0 18119.3846    0  141 18291.0000 18119.3846  0.94%     -    6s
     0     0 18119.6991    0  128 18291.0000 18119.6991  0.94%     -    6s
     0     0 18119.7714    0  131 18291.0000 18119.7714  0.94%     -    6s
     0     0 18119.8153    0  131 18291.0000 18119.8153  0.94%     -    6s
     0     0 18119.8370    0  131 18291.0000 18119.8370  0.94%     -    6s
     0     0 18119.8877    0  131 18291.0000 18119.8877  0.94%     -    6s
     0     0 18119.9075    0  131 18291.0000 18119.9075  0.94%     -    6s
     0     0 18119.9720    0  132 18291.0000 18119.9720  0.94%     -    6s
     0     0 18120.0089    0  133 18291.0000 18120.0089  0.93%     -    6s
     0     0 18120.0523    0  132 18291.0000 18120.0523  0.93%     -    6s
     0     0 18120.0545    0  129 18291.0000 18120.0545  0.93%     -    6s
     0     0 18120.0555    0  129 18291.0000 18120.0555  0.93%     -    6s
     0     0 18120.1759    0  132 18291.0000 18120.1759  0.93%     -    6s
     0     0 18120.1923    0  114 18291.0000 18120.1923  0.93%     -    6s
     0     0 18121.1634    0  135 18291.0000 18121.1634  0.93%     -    6s
     0     0 18121.1634    0  132 18291.0000 18121.1634  0.93%     -    6s
     0     0 18134.1634    0   59 18291.0000 18134.1634  0.86%     -    7s
     0     0 18134.1634    0   67 18291.0000 18134.1634  0.86%     -    7s
     0     0 18134.1634    0   54 18291.0000 18134.1634  0.86%     -    7s
     0     0 18134.1634    0   30 18291.0000 18134.1634  0.86%     -    7s
     0     0 18134.1634    0   80 18291.0000 18134.1634  0.86%     -    7s
     0     0 18134.1634    0  110 18291.0000 18134.1634  0.86%     -    7s
     0     0 18134.1634    0  129 18291.0000 18134.1634  0.86%     -    7s
     0     0 18134.1634    0  136 18291.0000 18134.1634  0.86%     -    7s
     0     0 18134.1634    0  121 18291.0000 18134.1634  0.86%     -    7s
     0     0 18134.1634    0  117 18291.0000 18134.1634  0.86%     -    7s
     0     0 18134.1634    0  129 18291.0000 18134.1634  0.86%     -    7s
     0     0 18134.1634    0  124 18291.0000 18134.1634  0.86%     -    7s
     0     0 18134.1634    0  145 18291.0000 18134.1634  0.86%     -    7s
     0     0 18134.1634    0  142 18291.0000 18134.1634  0.86%     -    7s
     0     0 18134.1634    0  154 18291.0000 18134.1634  0.86%     -    7s
     0     0 18134.1634    0  131 18291.0000 18134.1634  0.86%     -    7s
     0     0 18134.1634    0  130 18291.0000 18134.1634  0.86%     -    7s
     0     2 18138.0209    0  130 18291.0000 18138.0209  0.84%     -    8s
*    3     6               2    18142.000000 18138.0209  0.02%   238    8s

Cutting planes:
  Clique: 37
  MIR: 2
  Zero half: 12
  RLT: 84

Explored 12 nodes (14507 simplex iterations) in 8.21 seconds (7.21 work units)
Thread count was 8 (of 8 available processors)

Solution count 8: 18142 18291 18310 ... 21160

Optimal solution found (tolerance 1.00e-04)
Best objective 1.814200000000e+04, best bound 1.814200000000e+04, gap 0.0000%

User-callback calls 2274, time in user-callback 0.01 sec

=========================

OUTPUT STATISTICS
Relaxed: false
Time since start: 20.990363836288452
SetUpTime: 12.286430835723877
Objective value: 18142.0
Number of variables: 20662
Solving time: 8.691962003707886
